Set parameter TSPort to value 51199
Set parameter TokenServer to value "open-license1.lanl.gov"
Set parameter TimeLimit to value 4096
Set parameter Threads to value 1
Gurobi Optimizer version 10.0.3 build v10.0.3rc0 (linux64)

CPU model: Intel(R) Xeon(R) CPU E5-2695 v4 @ 2.10GHz, instruction set [SSE2|AVX|AVX2]
Thread count: 36 physical cores, 72 logical processors, using up to 1 threads

Optimize a model with 0 rows, 2897 columns and 0 nonzeros
Model fingerprint: 0x4ba92505
Model has 13399 quadratic objective terms
Variable types: 0 continuous, 2897 integer (2897 binary)
Coefficient statistics:
  Matrix range     [0e+00, 0e+00]
  Objective range  [2e+00, 3e+01]
  QObjective range [8e+00, 8e+00]
  Bounds range     [1e+00, 1e+00]
  RHS range        [0e+00, 0e+00]
Found heuristic solution: objective 0.0000000
Found heuristic solution: objective -4890.000000
Found heuristic solution: objective -17908.00000
Found heuristic solution: objective -17980.00000
Presolve removed 0 rows and 1 columns
Presolve time: 0.34s
Presolved: 13398 rows, 16294 columns, 40194 nonzeros
Variable types: 0 continuous, 16294 integer (16294 binary)

Root relaxation: objective -2.516500e+04, 3992 iterations, 0.06 seconds (0.03 work units)

    Nodes    |    Current Node    |     Objective Bounds      |     Work
 Expl Unexpl |  Obj  Depth IntInf | Incumbent    BestBd   Gap | It/Node Time

     0     0 -25165.000    0 2896 -17980.000 -25165.000  40.0%     -    0s
     0     0 -23628.000    0 3654 -17980.000 -23628.000  31.4%     -    1s
     0     0 -23325.000    0 3816 -17980.000 -23325.000  29.7%     -    1s
     0     0 -23316.000    0 3824 -17980.000 -23316.000  29.7%     -    1s
     0     0 -23068.500    0 3998 -17980.000 -23068.500  28.3%     -    2s
     0     0 -23068.500    0 3956 -17980.000 -23068.500  28.3%     -    2s
     0     2 -23068.500    0 3955 -17980.000 -23068.500  28.3%     -    3s
    61    63 -22761.500   31 4243 -17980.000 -23056.500  28.2%   137    5s
   323   325 -21646.000  162 4938 -17980.000 -23056.500  28.2%  94.5   10s
   574   576 -20697.000  287 5342 -17980.000 -23056.500  28.2%  83.9   15s
   818   820 -19811.000  409 5545 -17980.000 -23056.500  28.2%  78.2   20s
   934   936 -19458.000  467 5587 -17980.000 -23056.500  28.2%  76.0   25s
H  988   988                    -17982.00000 -23056.500  28.2%  74.6   25s
H 1049  1049                    -17994.00000 -23056.500  28.1%  73.0   28s
  1160  1162 -18930.000  581 5603 -17994.000 -23056.500  28.1%  70.1   30s
H 1326  1326                    -18000.00000 -23056.500  28.1%  67.3   32s
H 1352  1352                    -18004.00000 -23056.500  28.1%  66.8   33s
H 1378  1378                    -18006.00000 -23056.500  28.0%  66.3   33s
H 1404  1404                    -18012.00000 -23056.500  28.0%  65.7   33s
H 1456  1456                    -18016.00000 -23056.500  28.0%  64.9   34s
H 1482  1482                    -18024.00000 -23056.500  27.9%  64.3   34s
  1487  1489 -18207.550  747 5173 -18024.000 -23056.500  27.9%  64.3   35s
H 1508  1508                    -18028.00000 -23056.500  27.9%  63.7   35s
H 1560  1560                    -18032.00000 -23056.500  27.9%  62.5   36s
H 1586  1586                    -18038.00000 -23056.500  27.8%  62.0   36s
H 1612  1588                    -18052.00000 -23056.500  27.7%  61.4   36s
H 1623  1504                    -18056.00000 -23054.500  27.7%  61.1   40s
  1628  1507 -19294.000  498 4900 -18056.000 -21856.583  21.0%  60.9   46s
  1635  1512 -18898.000  589 5593 -18056.000 -21438.580  18.7%  60.6   60s
  1636  1512 -21300.171   20 6084 -18056.000 -21300.171  18.0%  60.6   83s
  1637  1513 -18339.800  713 6234 -18056.000 -21269.873  17.8%  60.5   94s
  1638  1514 -19178.000  522 6327 -18056.000 -21259.672  17.7%  60.5  102s
  1639  1514 -19207.000  516 6381 -18056.000 -21256.419  17.7%  60.5  105s
  1643  1517 -19882.000  400 6526 -18056.000 -21253.678  17.7%  60.3  110s
  1648  1520 -20963.051  197 6980 -18056.000 -20963.051  16.1%  60.1  177s
  1649  1521 -19950.000  390 7360 -18056.000 -20875.089  15.6%  60.1  240s
  1650  1522 -20848.213  132 7737 -18056.000 -20848.213  15.5%  60.1  278s
  1651  1522 -18767.000  610 7914 -18056.000 -20841.746  15.4%  60.0  288s
  1652  1523 -20837.638  135 8004 -18056.000 -20837.638  15.4%  60.0  296s
  1653  1524 -18701.000  621 8082 -18056.000 -20835.965  15.4%  60.0  301s
  1655  1525 -18842.000  600 8118 -18056.000 -20835.073  15.4%  59.9  307s
  1659  1528 -19227.000  512 8176 -18056.000 -20834.988  15.4%  59.7  310s
  1660  1528 -19575.000  446 8513 -18056.000 -20592.866  14.0%  59.7  434s
  1661  1529 -19608.000  440 9020 -18056.000 -20523.803  13.7%  59.7  537s
  1662  1530 -18852.000  598 9332 -18056.000 -20500.348  13.5%  59.6  586s
  1663  1530 -20434.000  323 9555 -18056.000 -20493.554  13.5%  59.6  612s
  1664  1531 -18199.550  749 9651 -18056.000 -20490.114  13.5%  59.6  627s
  1665  1532 -20357.000  334 9684 -18056.000 -20488.650  13.5%  59.5  636s
  1666  1532 -19549.000  451 9781 -18056.000 -20488.140  13.5%  59.5  641s
  1668  1534 -19845.000  405 9791 -18056.000 -20487.795  13.5%  59.4  647s
  1671  1536 -20487.730  207 9873 -18056.000 -20487.730  13.5%  59.3  652s
  1672  1536 -18607.500  646 10109 -18056.000 -20323.370  12.6%  59.3  834s
  1673  1537 -18891.000  590 10590 -18056.000 -20268.895  12.3%  59.2  971s
  1674  1538 -20254.817   64 10964 -18056.000 -20254.817  12.2%  59.2 1033s
  1675  1538 -20250.660  162 11151 -18056.000 -20250.660  12.2%  59.2 1064s
  1676  1539 -20249.082  238 11269 -18056.000 -20249.082  12.1%  59.1 1079s
  1677  1540 -20248.509   21 11394 -18056.000 -20248.509  12.1%  59.1 1088s
  1678  1540 -20248.150  193 11307 -18056.000 -20248.150  12.1%  59.1 1093s
  1679  1541 -19631.000  436 11408 -18056.000 -20248.031  12.1%  59.0 1096s
  1682  1543 -19534.000  453 11446 -18056.000 -20247.958  12.1%  58.9 1100s
  1684  1544 -20097.460    3 11989 -18056.000 -20097.460  11.3%  58.9 1351s
  1685  1545 -18501.500  672 12427 -18056.000 -20064.554  11.1%  58.8 1507s
  1686  1546 -19064.000  548 12686 -18056.000 -20055.647  11.1%  58.8 1594s
  1687  1546 -20053.507   78 12809 -18056.000 -20053.507  11.1%  58.8 1624s
  1688  1547 -18634.500  640 12853 -18056.000 -20052.668  11.1%  58.7 1643s
  1689  1548 -19119.000  537 12868 -18056.000 -20052.437  11.1%  58.7 1650s
  1690  1548 -20052.221  101 12935 -18056.000 -20052.221  11.1%  58.6 1659s
  1691  1549 -18056.000  799 12945 -18056.000 -20052.114  11.1%  58.6 1663s
  1692  1550 -20052.072  345 12958 -18056.000 -20052.072  11.1%  58.6 1666s
  1694  1551 -20052.043  193 12954 -18056.000 -20052.043  11.1%  58.5 1670s
H 1695  1473                    -18062.00000 -19984.695  10.6%  58.5 1881s
  1697  1474 -19973.288  174 13185 -18062.000 -19973.288  10.6%  58.4 1978s
  1698  1475 -18677.000  628 13285 -18062.000 -19971.178  10.6%  58.4 2009s
  1699  1475 -19177.000  523 13235 -18062.000 -19970.500  10.6%  58.3 2023s
  1700  1476 -18767.000  610 13312 -18062.000 -19970.264  10.6%  58.3 2034s
  1701  1477 -19024.000  565 13360 -18062.000 -19970.201  10.6%  58.3 2038s
  1702  1477 -19818.000  409 13355 -18062.000 -19970.167  10.6%  58.2 2042s
  1704  1479 -18729.000  616 13380 -18062.000 -19970.151  10.6%  58.2 2047s
  1705  1479 -19918.280  211 13244 -18062.000 -19918.280  10.3%  58.1 2264s
  1706  1480 -19906.670  245 13417 -18062.000 -19906.670  10.2%  58.1 2392s
  1707  1481 -18171.000  762 13491 -18062.000 -19904.589  10.2%  58.1 2437s
  1708  1481 -19873.000  401 13510 -18062.000 -19904.093  10.2%  58.0 2452s
  1709  1482 -19903.857  312 13549 -18062.000 -19903.857  10.2%  58.0 2461s
  1710  1483 -19903.662   85 13586 -18062.000 -19903.662  10.2%  58.0 2472s
  1711  1483 -19903.619  236 13600 -18062.000 -19903.619  10.2%  57.9 2476s
  1714  1485 -19903.600  282 13625 -18062.000 -19903.600  10.2%  57.8 2482s
H 1714  1410                    -18066.00000 -19867.555  10.0%  57.8 2697s
  1716  1412 -18159.083  766 13673 -18066.000 -19858.812  9.92%  57.8 2815s
  1717  1412 -18455.500  685 13714 -18066.000 -19857.287  9.92%  57.7 2848s
  1718  1413 -19486.000  462 13725 -18066.000 -19856.836  9.91%  57.7 2867s
  1719  1414 -18518.500  668 13761 -18066.000 -19856.677  9.91%  57.7 2875s
  1721  1415 -19486.000  462 13765 -18066.000 -19856.634  9.91%  57.6 2881s
  1722  1416 -19856.630  148 13771 -18066.000 -19856.630  9.91%  57.6 2886s
  1723  1416 -19826.244  330 13667 -18066.000 -19826.244  9.74%  57.5 3083s
  1724  1417 -19051.000  559 13829 -18066.000 -19819.635  9.71%  57.5 3176s
  1725  1418 -19818.276  314 13879 -18066.000 -19818.276  9.70%  57.5 3207s
  1726  1418 -19029.000  564 13923 -18066.000 -19817.777  9.70%  57.4 3227s
  1727  1419 -19144.000  532 13941 -18066.000 -19817.681  9.70%  57.4 3232s
  1728  1420 -19294.000  498 13962 -18066.000 -19817.633  9.70%  57.4 3237s
  1730  1421 -18799.000  605 13986 -18066.000 -19817.616  9.70%  57.3 3240s
  1732  1422 -19789.167  187 13883 -18066.000 -19789.167  9.54%  57.2 3454s
  1733  1423 -19207.000  516 13947 -18066.000 -19783.528  9.51%  57.2 3556s
  1734  1424 -19506.000  459 13972 -18066.000 -19782.598  9.50%  57.2 3589s
  1735  1424 -18898.000  589 14015 -18066.000 -19782.346  9.50%  57.1 3601s
  1736  1425 -19782.259   20 14046 -18066.000 -19782.259  9.50%  57.1 3606s
  1738  1426 -19178.000  522 14073 -18066.000 -19782.175  9.50%  57.0 3614s
  1739  1427 -19207.000  516 14090 -18066.000 -19782.162  9.50%  57.0 3616s
  1741  1428 -19758.401  255 13958 -18066.000 -19758.401  9.37%  56.9 3815s
  1742  1429 -19646.000  434 14052 -18066.000 -19753.094  9.34%  56.9 3918s
  1743  1430 -19752.308  400 14104 -18066.000 -19752.308  9.33%  56.9 3942s
  1744  1430 -18417.500  695 14140 -18066.000 -19752.092  9.33%  56.8 3953s
  1745  1431 -19751.958  341 14137 -18066.000 -19751.958  9.33%  56.8 3962s
  1746  1432 -19751.889  243 14147 -18066.000 -19751.889  9.33%  56.8 3968s
  1747  1432 -19492.000  461 14170 -18066.000 -19751.869  9.33%  56.7 3971s

Cutting planes:
  Gomory: 101
  MIR: 577
  Flow cover: 4858
  Zero half: 1886
  Mod-K: 130
  RLT: 529
  BQP: 858

Explored 1749 nodes (2343648 simplex iterations) in 4096.00 seconds (6053.04 work units)
Thread count was 1 (of 72 available processors)

Solution count 10: -18066 -18062 -18056 ... -18012

Time limit reached
Best objective -1.806600000000e+04, best bound -1.975000000000e+04, gap 9.3214%

User-callback calls 16638, time in user-callback 0.09 sec

BQP_SOLUTION, 2897, 13399, -6300.000000, 4096.002810, -1, -1, 1, -1, 1, -1, -1, 1, 1, 1, 1, -1, -1, 1, -1, 1, 1, -1, -1, 1, -1, -1, -1, -1, 1, -1, 1, -1, 1, -1, 1, -1, 1, -1, -1, 1, -1, 1, 1, -1, -1, 1, 1, -1, -1, -1, 1, -1, -1, 1, -1, 1, 1, 1, -1, -1, -1, -1, 1, 1, -1, 1, -1, 1, -1, -1, -1, -1, 1, -1, -1, 1, -1, 1, -1, 1, -1, -1, -1, -1, -1, -1, 1, -1, -1, 1, 1, -1, -1, -1, 1, -1, -1, 1, -1, 1, -1, 1, 1, 1, -1, -1, -1, 1, 1, 1, -1, -1, 1, -1, 1, -1, -1, -1, -1, 1, -1, -1, -1, 1, 1, -1, -1, 1, -1, -1, 1, -1, -1, -1, 1, 1, -1, -1, -1, 1, -1, -1, 1, -1, 1, 1, -1, -1, 1, -1, -1, 1, 1, 1, -1, 1, 1, -1, -1, -1, 1, 1, -1, -1, 1, -1, -1, -1, 1, 1, -1, 1, -1, 1, -1, -1, -1, -1, 1, 1, -1, -1, 1, -1, -1, -1, 1, -1, -1, -1, 1, -1, -1, -1, -1, -1, 1, -1, -1, -1, 1, -1, -1, -1, -1, 1, -1, -1, -1, -1, -1, -1, 1, 1, -1, 1, 1, -1, -1, 1, -1, -1, -1, 1, 1, -1, 1, 1, -1, -1, -1, 1, -1, -1, -1, -1, -1, -1, 1, -1, -1, -1, 1, -1, -1, -1, 1, -1, 1, 1, -1, -1, -1, -1, -1, -1, 1, -1, -1, -1, 1, -1, -1, -1, -1, -1, -1, -1, 1, -1, 1, 1, -1, -1, 1, -1, -1, -1, 1, -1, -1, -1, 1, -1, -1, -1, -1, 1, -1, -1, 1, -1, -1, -1, -1, -1, -1, -1, 1, -1, -1, -1, -1, -1, -1, 1, -1, -1, -1, -1, 1, -1, 1, -1, 1, -1, 1, -1, -1, -1, -1, 1, -1, 1, 1, -1, 1, -1, -1, -1, -1, 1, 1, -1, 1, -1, -1, 1, -1, -1, -1, -1, 1, 1, -1, 1, -1, 1, -1, -1, -1, -1, 1, -1, 1, -1, 1, -1, -1, -1, -1, -1, -1, -1, 1, -1, -1, -1, 1, -1, -1, -1, -1, -1, -1, -1, 1, 1, -1, -1, -1, -1, -1, -1, -1, -1, 1, 1, -1, 1, 1, -1, -1, -1, -1, -1, -1, 1, 1, 1, -1, -1, -1, -1, -1, -1, -1, 1, 1, 1, 1, 1, -1, -1, -1, -1, -1, -1, 1, 1, -1, 1, -1, 1, -1, -1, 1, 1, -1, 1, 1, 1, 1, -1, 1, 1, -1, -1, 1, -1, 1, 1, -1, 1, 1, 1, 1, -1, -1, -1, -1, -1, 1, 1, -1, -1, 1, 1, 1, -1, 1, -1, -1, 1, 1, 1, -1, 1, 1, -1, -1, 1, -1, -1, 1, 1, 1, -1, 1, -1, -1, 1, 1, -1, -1, 1, 1, 1, 1, -1, 1, -1, -1, -1, -1, -1, 1, 1, 1, -1, 1, 1, 1, 1, -1, 1, -1, 1, 1, 1, -1, -1, 1, 1, 1, 1, 1, 1, -1, 1, 1, -1, 1, -1, -1, 1, 1, 1, -1, -1, 1, -1, 1, -1, 1, 1, 1, 1, -1, -1, 1, 1, 1, -1, 1, -1, 1, 1, -1, -1, -1, 1, 1, -1, 1, -1, 1, -1, 1, 1, -1, -1, -1, 1, -1, 1, -1, -1, 1, -1, 1, -1, -1, -1, 1, 1, -1, -1, -1, 1, -1, 1, -1, -1, -1, -1, -1, 1, -1, -1, -1, -1, 1, -1, 1, -1, 1, -1, -1, -1, -1, 1, -1, 1, -1, 1, -1, 1, 1, -1, 1, -1, -1, 1, -1, 1, -1, -1, 1, -1, -1, 1, -1, -1, -1, 1, -1, 1, -1, -1, -1, -1, -1, -1, -1, -1, 1, -1, 1, -1, 1, -1, -1, 1, -1, -1, -1, 1, 1, 1, -1, 1, 1, -1, -1, -1, -1, -1, 1, -1, 1, -1, 1, -1, -1, -1, -1, -1, 1, 1, 1, 1, 1, 1, -1, 1, -1, -1, -1, 1, -1, 1, -1, 1, 1, -1, -1, -1, -1, -1, 1, 1, 1, -1, 1, 1, 1, -1, -1, -1, -1, 1, -1, 1, -1, 1, 1, 1, -1, 1, -1, 1, -1, 1, 1, 1, 1, 1, -1, -1, -1, 1, -1, 1, 1, 1, 1, 1, -1, -1, 1, -1, -1, 1, -1, 1, 1, 1, 1, 1, 1, -1, -1, -1, 1, 1, -1, 1, 1, 1, 1, 1, -1, -1, -1, 1, -1, 1, -1, 1, 1, 1, 1, 1, -1, -1, 1, -1, -1, 1, 1, 1, 1, 1, 1, 1, -1, -1, 1, -1, 1, 1, 1, -1, -1, 1, -1, -1, 1, 1, -1, 1, 1, 1, -1, 1, 1, -1, -1, 1, -1, 1, 1, 1, -1, 1, -1, 1, -1, -1, -1, -1, 1, 1, -1, 1, -1, 1, 1, 1, -1, 1, 1, -1, 1, 1, -1, 1, -1, 1, -1, -1, 1, 1, 1, 1, 1, -1, 1, -1, 1, -1, -1, 1, -1, 1, 1, 1, -1, -1, 1, 1, -1, -1, -1, 1, -1, 1, 1, 1, -1, 1, -1, -1, -1, -1, 1, -1, 1, -1, 1, -1, 1, 1, -1, -1, -1, 1, -1, 1, -1, 1, -1, 1, 1, -1, -1, -1, -1, 1, 1, 1, -1, -1, -1, 1, -1, -1, -1, -1, -1, 1, -1, -1, -1, 1, 1, 1, -1, -1, 1, 1, 1, 1, -1, 1, 1, 1, -1, 1, -1, 1, 1, -1, -1, 1, -1, 1, 1, -1, 1, -1, 1, -1, 1, -1, 1, 1, 1, 1, -1, -1, -1, 1, -1, -1, -1, -1, 1, -1, -1, -1, 1, 1, 1, -1, -1, -1, 1, -1, 1, -1, -1, 1, -1, 1, 1, -1, -1, -1, 1, -1, 1, -1, -1, -1, 1, 1, -1, -1, -1, 1, 1, -1, -1, -1, 1, 1, -1, -1, -1, 1, -1, 1, -1, -1, -1, 1, 1, 1, -1, -1, 1, 1, -1, 1, -1, 1, 1, 1, 1, -1, -1, -1, -1, 1, -1, -1, 1, 1, 1, 1, 1, -1, 1, 1, 1, -1, -1, 1, 1, 1, 1, -1, -1, -1, 1, -1, -1, -1, 1, 1, 1, -1, 1, -1, -1, 1, 1, -1, -1, -1, 1, 1, 1, 1, -1, 1, -1, -1, -1, -1, 1, -1, 1, 1, -1, -1, 1, -1, 1, -1, -1, 1, -1, 1, 1, -1, -1, 1, 1, -1, 1, -1, 1, 1, 1, 1, -1, 1, 1, 1, 1, -1, 1, 1, -1, 1, -1, -1, -1, 1, 1, -1, -1, -1, 1, 1, 1, 1, 1, 1, 1, 1, -1, 1, 1, 1, 1, 1, 1, -1, 1, 1, 1, -1, 1, 1, -1, 1, -1, 1, 1, 1, 1, 1, 1, 1, -1, 1, 1, -1, 1, -1, 1, 1, 1, -1, 1, -1, 1, 1, 1, -1, 1, 1, -1, 1, 1, -1, -1, 1, -1, 1, 1, 1, -1, 1, 1, -1, -1, -1, 1, -1, 1, 1, 1, -1, 1, 1, -1, 1, -1, 1, 1, 1, 1, -1, 1, 1, 1, -1, 1, -1, 1, 1, -1, 1, -1, -1, 1, 1, -1, 1, 1, -1, 1, -1, 1, -1, 1, 1, 1, -1, -1, 1, 1, 1, -1, -1, 1, 1, 1, -1, -1, -1, 1, -1, 1, -1, -1, -1, 1, 1, 1, -1, -1, 1, 1, -1, 1, -1, 1, -1, 1, 1, -1, -1, -1, 1, -1, 1, -1, 1, -1, 1, -1, -1, -1, 1, -1, 1, -1, -1, 1, 1, -1, 1, -1, 1, -1, 1, 1, -1, -1, 1, 1, -1, 1, -1, -1, -1, 1, 1, -1, -1, 1, 1, -1, 1, -1, -1, -1, 1, -1, 1, -1, 1, -1, 1, 1, -1, 1, -1, 1, -1, -1, -1, 1, 1, -1, 1, -1, 1, -1, 1, -1, 1, -1, 1, 1, 1, -1, 1, -1, -1, 1, -1, -1, -1, 1, 1, 1, -1, 1, -1, 1, -1, -1, -1, 1, 1, -1, -1, -1, 1, -1, 1, 1, -1, 1, 1, 1, -1, -1, 1, 1, -1, 1, 1, -1, -1, 1, 1, -1, -1, 1, -1, 1, 1, -1, -1, -1, 1, 1, 1, -1, -1, -1, -1, 1, 1, -1, -1, 1, 1, 1, 1, -1, 1, 1, 1, 1, -1, -1, 1, -1, 1, -1, -1, -1, -1, 1, -1, -1, 1, 1, 1, 1, -1, -1, 1, 1, 1, 1, -1, -1, -1, 1, 1, -1, -1, -1, 1, -1, 1, -1, -1, 1, 1, 1, -1, -1, 1, 1, 1, 1, 1, 1, -1, 1, 1, -1, -1, 1, -1, 1, -1, 1, 1, -1, 1, 1, 1, 1, 1, -1, 1, 1, 1, 1, -1, 1, 1, 1, -1, -1, -1, 1, -1, 1, -1, 1, 1, 1, -1, 1, 1, -1, 1, 1, 1, -1, -1, 1, 1, 1, 1, -1, -1, 1, -1, 1, -1, -1, 1, 1, 1, 1, -1, 1, -1, 1, 1, -1, -1, 1, 1, -1, -1, -1, 1, -1, 1, 1, -1, -1, 1, 1, 1, -1, 1, 1, 1, 1, -1, -1, -1, 1, 1, -1, -1, -1, 1, -1, 1, 1, -1, -1, 1, 1, 1, -1, 1, 1, 1, -1, -1, -1, -1, -1, 1, 1, 1, -1, -1, -1, 1, 1, -1, -1, 1, 1, 1, 1, -1, 1, 1, -1, -1, -1, -1, -1, 1, 1, 1, -1, 1, 1, -1, -1, -1, -1, 1, 1, 1, 1, 1, 1, -1, -1, 1, -1, -1, 1, 1, 1, -1, 1, 1, -1, -1, -1, -1, -1, 1, 1, 1, 1, -1, 1, 1, -1, 1, -1, -1, 1, 1, 1, 1, 1, 1, 1, -1, 1, -1, 1, 1, 1, 1, 1, -1, 1, -1, 1, 1, -1, -1, 1, 1, 1, 1, 1, 1, 1, -1, -1, -1, -1, 1, 1, -1, 1, 1, -1, 1, -1, 1, -1, 1, 1, 1, 1, 1, 1, 1, 1, -1, -1, -1, 1, -1, 1, 1, 1, 1, -1, 1, -1, -1, 1, -1, 1, 1, 1, 1, 1, -1, 1, -1, -1, -1, 1, 1, 1, 1, 1, -1, -1, 1, -1, -1, -1, 1, 1, 1, 1, 1, -1, -1, 1, -1, 1, 1, -1, 1, 1, -1, 1, -1, -1, 1, -1, 1, -1, 1, 1, -1, 1, -1, -1, 1, 1, -1, 1, 1, 1, -1, -1, 1, -1, 1, 1, 1, -1, -1, 1, 1, -1, 1, -1, 1, -1, 1, 1, 1, 1, 1, 1, 1, -1, -1, -1, 1, 1, -1, -1, -1, 1, 1, -1, -1, 1, 1, 1, 1, -1, 1, 1, 1, -1, 1, -1, 1, -1, 1, 1, 1, 1, 1, -1, 1, 1, -1, 1, -1, 1, 1, -1, 1, -1, -1, 1, -1, 1, 1, 1, 1, -1, 1, 1, 1, 1, -1, -1, -1, -1, -1, 1, 1, 1, 1, 1, 1, -1, -1, -1, 1, -1, 1, 1, 1, -1, -1, 1, -1, -1, 1, 1, -1, 1, 1, 1, 1, 1, 1, 1, 1, 1, 1, -1, 1, 1, 1, 1, -1, -1, -1, 1, -1, 1, 1, 1, 1, -1, 1, 1, -1, 1, 1, -1, 1, -1, 1, 1, 1, 1, -1, 1, 1, -1, -1, 1, 1, 1, 1, 1, 1, 1, -1, -1, 1, -1, 1, 1, 1, 1, 1, 1, -1, 1, -1, 1, -1, 1, 1, -1, 1, 1, 1, -1, 1, -1, 1, -1, 1, -1, 1, -1, 1, 1, -1, 1, 1, -1, 1, 1, -1, 1, 1, 1, 1, 1, 1, 1, -1, 1, 1, -1, 1, 1, 1, 1, 1, 1, -1, 1, -1, 1, 1, 1, 1, -1, 1, -1, 1, 1, 1, -1, 1, -1, -1, 1, 1, 1, 1, 1, 1, 1, 1, -1, 1, 1, 1, 1, 1, -1, 1, 1, 1, 1, 1, 1, 1, 1, 1, -1, 1, -1, 1, 1, 1, 1, 1, -1, 1, 1, 1, 1, -1, 1, 1, -1, -1, 1, -1, 1, 1, 1, -1, -1, 1, 1, 1, 1, 1, -1, 1, 1, -1, 1, -1, -1, 1, 1, -1, 1, -1, -1, 1, 1, 1, -1, 1, 1, -1, 1, 1, -1, 1, 1, 1, 1, -1, 1, 1, 1, -1, 1, -1, 1, 1, -1, -1, -1, -1, 1, -1, 1, -1, 1, 1, 1, -1, 1, -1, -1, 1, 1, -1, -1, 1, -1, 1, 1, -1, -1, -1, 1, 1, 1, 1, 1, 1, 1, 1, -1, -1, 1, -1, 1, 1, -1, 1, -1, 1, -1, -1, -1, -1, 1, 1, 1, 1, 1, 1, 1, 1, -1, -1, -1, 1, 1, -1, 1, -1, 1, 1, -1, 1, -1, -1, 1, 1, 1, 1, 1, 1, -1, -1, -1, 1, -1, 1, 1, -1, 1, 1, 1, -1, -1, -1, -1, 1, 1, 1, 1, -1, -1, 1, -1, -1, -1, 1, -1, 1, 1, 1, -1, 1, 1, -1, -1, -1, -1, -1, 1, 1, -1, 1, -1, 1, -1, -1, 1, -1, 1, 1, 1, -1, 1, 1, 1, -1, -1, 1, -1, -1, 1, 1, 1, -1, 1, -1, -1, 1, -1, 1, 1, 1, 1, 1, 1, -1, 1, 1, -1, 1, -1, 1, 1, 1, 1, -1, 1, 1, 1, -1, -1, 1, 1, 1, 1, 1, -1, -1, 1, -1, -1, -1, 1, 1, 1, 1, 1, -1, -1, -1, -1, 1, -1, 1, 1, 1, 1, 1, -1, 1, -1, -1, 1, -1, 1, 1, 1, -1, -1, 1, -1, -1, -1, 1, 1, 1, 1, 1, 1, 1, -1, 1, -1, -1, 1, -1, -1, 1, 1, -1, 1, 1, 1, -1, 1, -1, 1, -1, -1, 1, -1, -1, -1, 1, -1, -1, 1, 1, 1, 1, 1, -1, -1, 1, -1, 1, -1, 1, 1, 1, 1, 1, -1, 1, -1, -1, 1, -1, 1, 1, 1, -1, 1, -1, -1, -1, -1, -1, -1, -1, 1, 1, -1, 1, -1, -1, -1, -1, -1, 1, -1, 1, 1, 1, -1, 1, 1, 1, -1, -1, -1, 1, 1, -1, -1, 1, 1, 1, -1, 1, -1, 1, -1, 1, 1, 1, 1, 1, 1, -1, 1, -1, -1, -1, 1, -1, 1, 1, -1, 1, 1, -1, 1, -1, 1, 1, 1, -1, 1, -1, 1, -1, 1, -1, 1, 1, 1, 1, 1, 1, 1, 1, -1, 1, -1, 1, 1, -1, -1, 1, 1, 1, -1, -1, 1, -1, 1, 1, 1, 1, 1, 1, 1, 1, -1, -1, -1, -1, 1, 1, 1, 1, 1, 1, 1, -1, 1, -1, 1, -1, -1, 1, 1, 1, 1, -1, -1, -1, -1, 1, 1, 1, 1, 1, 1, 1, -1, -1, 1, -1, 1, 1, 1, 1, 1, 1, 1, 1, -1, -1, -1, 1, 1, 1, 1, 1, 1, 1, -1, -1, -1, -1, -1, 1, 1, 1, 1, 1, 1, -1, -1, -1, -1, -1, -1, 1, 1, 1, 1, 1, 1, -1, -1, 1, 1, 1, -1, 1, 1, 1, 1, -1, -1, 1, -1, 1, 1, 1, 1, 1, 1, 1, -1, -1, -1, -1, 1, 1, 1, 1, -1, -1, 1, -1, -1, -1, -1, -1, 1, 1, 1, 1, -1, 1, -1, 1, 1, -1, 1, 1, 1, 1, 1, 1, 1, 1, -1, -1, -1, -1, 1, -1, -1, 1, 1, 1, -1, 1, 1, 1, -1, 1, -1, -1, 1, -1, 1, 1, -1, -1, -1, -1, 1, -1, -1, 1, 1, 1, 1, -1, 1, -1, -1, 1, -1, -1, 1, 1, -1, 1, -1, -1, -1, -1, -1, -1, -1, -1, 1, -1, 1, -1, -1, 1, -1, 1, -1, -1, -1, -1, -1, 1, -1, -1, 1, 1, -1, -1, -1, 1, 1, -1, 1, -1, -1, 1, -1, 1, -1, -1, 1, -1, 1, 1, -1, 1, -1, 1, -1, -1, -1, 1, -1, -1, 1, -1, -1, 1, -1, -1, 1, -1, 1, -1, -1, 1, -1, 1, -1, 1, -1, 1, -1, 1, -1, 1, -1, -1, 1, 1, -1, -1, -1, -1, 1, -1, -1, 1, -1, 1, 1, -1, -1, -1, -1, 1, -1, -1, 1, -1, 1, 1, -1, -1, -1, -1, 1, -1, -1, 1, -1, 1, 1, -1, -1, -1, -1, 1, -1, -1, -1, -1, 1, 1, 1, -1, -1, 1, 1, -1, -1, 1, -1, 1, 1, 1, -1, -1, 1, -1, 1, -1, 1, -1, 1, 1, -1, 1, -1, 1, -1, 1, -1, 1, -1, 1, 1, 1, 1, -1, -1, -1, 1, -1, -1, -1, -1, 1, 1, 1, -1, -1, 1, -1, -1, -1, -1, 1, 1, 1, -1, -1, 1, -1, -1, -1, -1, -1, 1, 1, 1, -1, -1, 1, -1, 1, -1, -1, 1, 1, 1, 1, -1, -1, 1, 1, 1, -1, -1, 1, 1, -1, 1, -1, -1, 1, -1, 1, -1, -1, 1, -1, 1, 1, -1, -1, -1, -1, 1, -1, -1, -1, -1, 1, -1, 1, -1, 1, -1, 1, -1, -1, 1, 1, 1, -1, -1, -1, 1, -1, 1, -1, 1, -1, -1, 1, -1, 1, 1, 1, -1, 1, 1, -1, -1, -1, 1, -1, -1, 1, 1, -1, 1, -1, 1, -1, 1, 1, -1, 1, 1, -1, 1, 1, -1, -1, 1, -1, 1, 1, -1, 1, 1, 1, 1, -1, -1, -1, 1, 1, 1, -1, 1
BQP_DATA, 2897, 13399, -6300.000000, -7984.000000, -18066.000000, -19750.000000, 4096.002810, 7552, 1749
